8773
1 1 0 0 0 1 0 0 1 1 1 0 1 0 1 0 1 0 0 0 
0 1 0 0 1 1 0 0 0 0 5 1 5 0 16 5 5 5 5 5 5 5 5 5 9 5 10 16 16 10 10 8 8 9 8 9 8 9 9 9 9 5 10 9 10 10 10 10 12 12 12 12 16 10 10 14 14 12 14 8 0 14 14 14 14 16 0 10 16 10 10 16 16 16 16 10 10 0 16 0 